Test: fpga10_9_sat.cnf
Options: -no-inverting-opt -sym-var-bump
WARNING: for repeatability, setting FPU to use double precision
============================[ Problem Statistics ]=============================
|                                                                             |
|  Number of symmetries:           23                                         |
|  Number of invertingSyms:         0                                         |
|  Number of variables:           135                                         |
|  Number of clauses:             549                                         |
|  Parse time:                   0.00 s                                       |
|                                                                             |
============================[ Search Statistics ]==============================
| Conflicts |          ORIGINAL         |          LEARNT          | Progress |
|           |    Vars  Clauses Literals |    Limit  Clauses Lit/Cl |          |
===============================================================================
===============================================================================
restarts              : 1
conflicts             : 30             (inf /sec)
symconflicts          : 3              (inf /sec)
decisions             : 134            (0.00 % random) (inf /sec)
propagations          : 682            (inf /sec)
sympropagations       : 36             (inf /sec)
conflict literals     : 820            (1.80 % deleted)
literals     : 820            (1.80 % deleted)

HEURISTIC USAGES
random                : 0           
activity w/ lookahead : 0           
activity no lookahead : 0           
original sp           : 133         
sym count             : 0           

Memory used           : 5.00 MB
CPU time              : 0 s

SATISFIABLE
